TCS_Benchmarks/redos_fix/corpus1_output_distinct_1667_1666_112_0.txt
(.*)(\s*)
(.*)([hH][rR][eE][fF]\s*\=)(\s*)